c CNF file corresponding to a (partial) station packing problem.
p cnf 6785 184
1 2 3 4 5 6 7 8 9 10 11 12 13 14 0
-1 -2 0
-1 -3 0
-1 -4 0
-1 -5 0
-1 -6 0
-1 -7 0
-1 -8 0
-1 -9 0
-1 -10 0
-1 -11 0
-1 -12 0
-1 -13 0
-1 -14 0
-2 -3 0
-2 -4 0
-2 -5 0
-2 -6 0
-2 -7 0
-2 -8 0
-2 -9 0
-2 -10 0
-2 -11 0
-2 -12 0
-2 -13 0
-2 -14 0
-3 -4 0
-3 -5 0
-3 -6 0
-3 -7 0
-3 -8 0
-3 -9 0
-3 -10 0
-3 -11 0
-3 -12 0
-3 -13 0
-3 -14 0
-4 -5 0
-4 -6 0
-4 -7 0
-4 -8 0
-4 -9 0
-4 -10 0
-4 -11 0
-4 -12 0
-4 -13 0
-4 -14 0
-5 -6 0
-5 -7 0
-5 -8 0
-5 -9 0
-5 -10 0
-5 -11 0
-5 -12 0
-5 -13 0
-5 -14 0
-6 -7 0
-6 -8 0
-6 -9 0
-6 -10 0
-6 -11 0
-6 -12 0
-6 -13 0
-6 -14 0
-7 -8 0
-7 -9 0
-7 -10 0
-7 -11 0
-7 -12 0
-7 -13 0
-7 -14 0
-8 -9 0
-8 -10 0
-8 -11 0
-8 -12 0
-8 -13 0
-8 -14 0
-9 -10 0
-9 -11 0
-9 -12 0
-9 -13 0
-9 -14 0
-10 -11 0
-10 -12 0
-10 -13 0
-10 -14 0
-11 -12 0
-11 -13 0
-11 -14 0
-12 -13 0
-12 -14 0
-13 -14 0
6772 6773 6774 6775 6776 6777 6778 6779 6780 6781 6782 6783 6784 6785 0
-6772 -6773 0
-6772 -6774 0
-6772 -6775 0
-6772 -6776 0
-6772 -6777 0
-6772 -6778 0
-6772 -6779 0
-6772 -6780 0
-6772 -6781 0
-6772 -6782 0
-6772 -6783 0
-6772 -6784 0
-6772 -6785 0
-6773 -6774 0
-6773 -6775 0
-6773 -6776 0
-6773 -6777 0
-6773 -6778 0
-6773 -6779 0
-6773 -6780 0
-6773 -6781 0
-6773 -6782 0
-6773 -6783 0
-6773 -6784 0
-6773 -6785 0
-6774 -6775 0
-6774 -6776 0
-6774 -6777 0
-6774 -6778 0
-6774 -6779 0
-6774 -6780 0
-6774 -6781 0
-6774 -6782 0
-6774 -6783 0
-6774 -6784 0
-6774 -6785 0
-6775 -6776 0
-6775 -6777 0
-6775 -6778 0
-6775 -6779 0
-6775 -6780 0
-6775 -6781 0
-6775 -6782 0
-6775 -6783 0
-6775 -6784 0
-6775 -6785 0
-6776 -6777 0
-6776 -6778 0
-6776 -6779 0
-6776 -6780 0
-6776 -6781 0
-6776 -6782 0
-6776 -6783 0
-6776 -6784 0
-6776 -6785 0
-6777 -6778 0
-6777 -6779 0
-6777 -6780 0
-6777 -6781 0
-6777 -6782 0
-6777 -6783 0
-6777 -6784 0
-6777 -6785 0
-6778 -6779 0
-6778 -6780 0
-6778 -6781 0
-6778 -6782 0
-6778 -6783 0
-6778 -6784 0
-6778 -6785 0
-6779 -6780 0
-6779 -6781 0
-6779 -6782 0
-6779 -6783 0
-6779 -6784 0
-6779 -6785 0
-6780 -6781 0
-6780 -6782 0
-6780 -6783 0
-6780 -6784 0
-6780 -6785 0
-6781 -6782 0
-6781 -6783 0
-6781 -6784 0
-6781 -6785 0
-6782 -6783 0
-6782 -6784 0
-6782 -6785 0
-6783 -6784 0
-6783 -6785 0
-6784 -6785 0
